14 47 11 12 16 68 100 70 
92 69 7 79 74 80 
42 39 71 81 56 91 
83 23 21 18 97 58 
59 52 78 10 13 17 
33 31 29 43 93 
65 82 98 61 41 37 35 
75 86 20 24 48 
72 36 38 44 40 96 
15 73 53 1 
95 88 46 3 4 60 
63 76 51 85 25 
64 67 50 34 32 
5 45 2 8 6 55 
99 57 49 77 
62 19 22 54 
27 28 30 89 
90 84 66 
9 
87 
26 
94 

